#------------------------------------------------------------------------------
#$Date: 2018-02-01 17:29:37 +0200 (Thu, 01 Feb 2018) $
#$Revision: 206032 $
#$URL: file:///home/coder/svn-repositories/cod/cif/4/12/40/4124082.cif $
#------------------------------------------------------------------------------
#
# This file is available in the Crystallography Open Database (COD),
# http://www.crystallography.net/
#
# All data on this site have been placed in the public domain by the
# contributors.
#
data_4124082
loop_
_publ_author_name
'Foster, M.D.'
'Friedrichs, O.D.'
'Bell, R.G.'
'Paz, F.A.A.'
'Klinowski, J.'
_publ_section_title
;
 Chemical evaluation of hypothetical uninodal zeolites
;
_journal_name_full               'Journal of the American Chemical Society'
_journal_page_first              9769
_journal_page_last               9775
_journal_paper_doi               10.1021/ja037334j
_journal_volume                  126
_journal_year                    2004
_chemical_formula_sum            'O2 Si'
_chemical_name_systematic        'Si O2'
_space_group_IT_number           54
_symmetry_space_group_name_Hall  '-P 2a 2ac'
_symmetry_space_group_name_H-M   'P c c a'
_cell_angle_alpha                90
_cell_angle_beta                 90
_cell_angle_gamma                90
_cell_formula_units_Z            8
_cell_length_a                   7.31778
_cell_length_b                   4.43911
_cell_length_c                   9.66304
_cell_volume                     313.898
_citation_journal_id_ASTM        JACSAT
_cod_data_source_file            Foster_JACSAT_2004_560.cif
_cod_data_source_block           O2Si1
_cod_original_cell_volume        313.8983
_cod_original_formula_sum        'O2 Si1'
_cod_struct_determination_method theoretical
_cod_database_code               4124082
loop_
_symmetry_equiv_pos_as_xyz
x,y,z
-x+1/2,-y,z
x+1/2,-y,-z+1/2
-x,y,-z+1/2
-x,-y,-z
x-1/2,y,-z
-x-1/2,y,z-1/2
x,-y,z-1/2
loop_
_atom_site_label
_atom_site_type_symbol
_atom_site_fract_x
_atom_site_fract_y
_atom_site_fract_z
_atom_site_occupancy
_atom_site_U_iso_or_equiv
O1 O-2 0 0 0 1 0.0
Si1 Si+4 0.92778 0.77985 0.10113 1 0.0
O2 O-2 0.5 0.31606 0.25 1 0.0
O3 O-2 0.75 0 0.13396 1 0.0
O4 O-2 0 0.5 0 1 0.0
