
#(C) 2017 by FIZ Karlsruhe - Leibniz Institute for Information Infrastructure.  All rights reserved.
data_164159-ICSD
_database_code_ICSD 164159
_audit_creation_date 2010-02-01
_audit_update_record 2013-08-01
_chemical_name_systematic 'Silicon oxide (64/128)'
_chemical_formula_structural 'Si64 O128'
_chemical_formula_sum 'O128 Si64'
_chemical_name_structure_type Si64O128(tI192)
_chemical_name_mineral 'Zeolite Sigma-2'
_exptl_crystal_density_diffrn 1.77
_publ_section_title

;
Probing local structures of zeolite frameworks by solid-state NMR and
first-principles calculations of (29)Si-O-(29)Si scalar couplings
;
loop_
_citation_id
_citation_journal_full
_citation_year
_citation_journal_volume
_citation_page_first
_citation_page_last
_citation_journal_id_ASTM
primary 'Physical Chemistry Chemical Physics' 2009 11 1825 1837 PPCPFQ
loop_
_publ_author_name
'Cadars, S.'
'Brouwer, D.H.'
'Chmelka, B.F.'
_cell_length_a 10.2316
_cell_length_b 10.2316
_cell_length_c 34.3642
_cell_angle_alpha 90.
_cell_angle_beta 90.
_cell_angle_gamma 90.
_cell_volume 3597.44
_cell_formula_units_Z 1
_symmetry_space_group_name_H-M 'I 41/a m d Z'
_symmetry_Int_Tables_number 141
loop_
_symmetry_equiv_pos_site_id
_symmetry_equiv_pos_as_xyz
1 'y+1/4, x+3/4, -z+1/4'
2 'y+1/4, -x+3/4, -z+1/4'
3 'x, y+1/2, -z'
4 'x, -y, -z'
5 '-y+3/4, x+3/4, -z+1/4'
6 '-y+3/4, -x+3/4, -z+1/4'
7 '-x, y+1/2, -z'
8 '-x, -y, -z'
9 '-y+3/4, -x+1/4, z+3/4'
10 '-y+3/4, x+1/4, z+3/4'
11 '-x, -y+1/2, z'
12 '-x, y, z'
13 'y+1/4, -x+1/4, z+3/4'
14 'y+1/4, x+1/4, z+3/4'
15 'x, -y+1/2, z'
16 'x, y, z'
17 'y+3/4, x+1/4, -z+3/4'
18 'y+3/4, -x+1/4, -z+3/4'
19 'x+1/2, y, -z+1/2'
20 'x+1/2, -y+1/2, -z+1/2'
21 '-y+1/4, x+1/4, -z+3/4'
22 '-y+1/4, -x+1/4, -z+3/4'
23 '-x+1/2, y, -z+1/2'
24 '-x+1/2, -y+1/2, -z+1/2'
25 '-y+1/4, -x+3/4, z+1/4'
26 '-y+1/4, x+3/4, z+1/4'
27 '-x+1/2, -y, z+1/2'
28 '-x+1/2, y+1/2, z+1/2'
29 'y+3/4, -x+3/4, z+1/4'
30 'y+3/4, x+3/4, z+1/4'
31 'x+1/2, -y, z+1/2'
32 'x+1/2, y+1/2, z+1/2'
loop_
_atom_type_symbol
_atom_type_oxidation_number
Si4+ 4
O2- -2
loop_
_atom_site_label
_atom_site_type_symbol
_atom_site_symmetry_multiplicity
_atom_site_Wyckoff_symbol
_atom_site_fract_x
_atom_site_fract_y
_atom_site_fract_z
_atom_site_B_iso_or_equiv
_atom_site_occupancy
_atom_site_attached_hydrogens
Si1 Si4+ 16 h 0.2857 0.25 0.1183 . 1. 0
Si2 Si4+ 16 f 0.2817 0.5 0 . 1. 0
Si3 Si4+ 16 h 0.1511 0.25 0.1955 . 1. 0
Si4 Si4+ 16 h 0.1534 0.25 0.0347 . 1. 0
O1 O2- 8 e 0 0.25 0.2067 . 1. 0
O2 O2- 32 i 0.2193 0.122 0.213 . 1. 0
O3 O2- 16 h 0.2285 0.25 0.0753 . 1. 0
O4 O2- 16 h 0.1675 0.25 0.1491 . 1. 0
O5 O2- 8 e 0 0.25 0.0424 . 1. 0
O6 O2- 32 i 0.1913 0.3775 0.0101 . 1. 0
O7 O2- 16 g 0.372 0.378 0.125 . 1. 0
#End of TTdata_164159-ICSD